(set-info :source |printed by MathSAT|)
(declare-fun |main::local_19@2| () (_ BitVec 8))
(declare-fun |main::n@3| () (_ BitVec 8))
(declare-fun |main::tmp_var_1_uchar@3| () (_ BitVec 8))
(declare-fun |main::local_18@3| () (_ BitVec 32))
(declare-fun |main::local_1a@2| () (_ BitVec 8))
(declare-fun |main::n@4| () (_ BitVec 8))
(declare-fun |main::tmp_var_1_uchar@4| () (_ BitVec 8))
(declare-fun |main::local_18@4| () (_ BitVec 32))
(declare-fun |main::n@5| () (_ BitVec 8))
(declare-fun |main::tmp_var_1_uchar@5| () (_ BitVec 8))
(declare-fun |main::local_18@5| () (_ BitVec 32))
(assert (let ((.def_12 ((_ zero_extend 24) |main::local_19@2|)))(let ((.def_27 (bvult |main::local_18@3| .def_12)))(let ((.def_25 (= |main::local_18@3| (_ bv0 32))))(let ((.def_22 (= |main::tmp_var_1_uchar@3| (_ bv0 8))))(let ((.def_19 (= |main::n@3| (_ bv0 8))))(let ((.def_15 (= |main::local_19@2| (_ bv0 8))))(let ((.def_16 (not .def_15)))(let ((.def_20 (and .def_16 .def_19)))(let ((.def_23 (and .def_20 .def_22)))(let ((.def_26 (and .def_23 .def_25)))(let ((.def_214 (and .def_26 .def_27)))(let ((.def_83 (= |main::local_1a@2| |main::n@4|)))(let ((.def_215 (and .def_83 .def_214)))(let ((.def_85 ((_ zero_extend 24) |main::local_1a@2|)))(let ((.def_30 ((_ zero_extend 24) |main::tmp_var_1_uchar@3|)))(let ((.def_87 (bvadd .def_30 .def_85)))(let ((.def_88 ((_ extract 7 0) .def_87)))(let ((.def_90 (= .def_88 |main::tmp_var_1_uchar@4|)))(let ((.def_216 (and .def_90 .def_215)))(let ((.def_93 (bvadd (_ bv1 32) |main::local_18@3|)))(let ((.def_95 (= .def_93 |main::local_18@4|)))(let ((.def_217 (and .def_95 .def_216)))(let ((.def_108 (bvult |main::local_18@4| .def_12)))(let ((.def_218 (and .def_108 .def_217)))(let ((.def_154 (= |main::local_1a@2| |main::n@5|)))(let ((.def_219 (and .def_154 .def_218)))(let ((.def_99 ((_ zero_extend 24) |main::tmp_var_1_uchar@4|)))(let ((.def_156 (bvadd .def_85 .def_99)))(let ((.def_157 ((_ extract 7 0) .def_156)))(let ((.def_159 (= .def_157 |main::tmp_var_1_uchar@5|)))(let ((.def_220 (and .def_159 .def_219)))(let ((.def_162 (bvadd (_ bv1 32) |main::local_18@4|)))(let ((.def_164 (= .def_162 |main::local_18@5|)))(let ((.def_221 (and .def_164 .def_220)))(let ((.def_203 (bvult |main::local_18@5| .def_12)))(let ((.def_205 (not .def_203)))(let ((.def_222 (and .def_205 .def_221)))(let ((.def_167 ((_ zero_extend 24) |main::n@5|)))(let ((.def_168 ((_ zero_extend 24) |main::tmp_var_1_uchar@5|)))(let ((.def_169 (bvslt .def_168 .def_167)))(let ((.def_223 (and .def_169 .def_222))).def_223))))))))))))))))))))))))))))))))))))))))))